p cnf 50 70
30 50 -5 0
-5 35 28 0
21 -36 -10 0
-16 -43 30 0
-4 49 8 0
45 48 21 0
-33 -3 -12 0
-27 35 8 0
33 11 -28 0
8 -5 49 0
-27 -35 -22 0
44 -27 -22 0
15 28 32 0
-35 -33 -44 0
35 -15 36 0
33 -44 -11 0
-43 36 -19 0
26 -12 10 0
-24 -40 17 0
-28 -24 50 0
-20 -27 -7 0
33 -50 42 0
-32 -6 5 0
-43 -36 14 0
-17 2 -14 0
-29 47 32 0
-37 30 -7 0
-31 -34 -29 0
3 -7 -9 0
44 41 -46 0
-13 31 -36 0
-4 17 50 0
20 -11 22 0
11 -45 4 0
16 -15 -10 0
-39 12 -4 0
-38 -46 49 0
19 -40 22 0
34 -23 -27 0
-41 -4 -2 0
39 -31 5 0
-8 -50 12 0
-35 23 22 0
-12 -14 16 0
-11 -1 -7 0
47 26 1 0
48 -3 33 0
-36 13 -14 0
-42 -4 -24 0
-9 -12 -35 0
x 2 -4 -5 -6 8 10 -11 12 -14 -17 -18 20 -21 -22 -23 -24 -25 28 -32 34 35 -36 -37 38 40 -41 -43 45 47 -49 0
x -4 -5 -6 7 -9 -10 11 -16 17 -18 20 -22 -23 25 -26 27 29 30 -33 -34 -35 38 40 -42 45 -48 49 0
x 1 -5 6 7 -10 -12 15 16 -17 -18 -21 -22 26 -27 -29 -30 -31 32 -34 -35 36 37 40 44 -49 -50 0
x 1 -5 -7 8 9 -10 14 15 -16 17 -20 21 23 24 27 28 -29 33 -35 -36 -42 -45 48 49 0
x -1 4 5 8 9 10 11 12 -13 -15 -17 20 -21 -23 -25 -26 37 41 -42 43 -48 0
x 5 7 9 -10 -12 15 16 -17 20 27 -30 33 34 -35 36 -37 38 -42 44 46 -47 49 -50 0
x 2 3 4 7 -8 9 10 12 -14 -16 -18 19 -23 24 26 -27 28 -29 30 32 33 -34 38 40 -42 -43 44 -45 46 0
x 1 -6 -7 -8 11 12 -16 -20 -23 -24 -31 -34 35 -37 38 -39 -41 42 -44 45 47 48 -50 0
x -3 -4 -7 13 14 -19 -22 26 -28 29 -31 32 -35 -36 37 -40 -42 43 46 47 -48 49 0
x 1 2 -7 -8 -9 -10 -11 13 15 -17 -19 -21 -22 -24 27 28 -32 33 -35 36 -37 39 -41 -47 0
x -1 -3 -4 -5 -6 12 13 -14 15 -19 -22 23 -25 -26 27 -29 30 -32 34 35 -37 -40 -41 42 -43 44 -45 46 -48 -50 0
x -1 2 -4 -6 8 10 -16 17 19 -20 23 -25 -26 29 30 31 -34 -37 47 48 -50 0
x -5 6 7 9 10 -11 12 15 -16 -18 -20 -22 -25 26 28 -29 -30 31 -34 -35 36 37 38 -40 42 -43 44 -46 47 49 50 0
x -3 -4 -5 6 9 11 -12 13 15 -16 -17 19 21 22 -24 -25 26 -27 28 29 -30 -31 34 35 42 -47 48 -49 0
x 1 -2 -3 6 -7 8 -11 18 20 22 23 24 -25 -26 -28 -29 30 -32 -33 -34 -35 -36 39 43 44 -46 48 -50 0
x -2 4 5 -7 -8 10 -14 -17 -19 -20 22 -23 24 25 -33 34 35 39 40 43 46 47 -49 50 0
x 1 3 -5 -6 -9 10 11 12 13 17 18 20 22 -23 25 26 -27 -29 -30 -32 33 34 35 -36 37 38 -39 40 43 -44 47 -50 0
x -1 -2 -5 6 -7 9 10 11 -12 -13 14 -16 18 -19 -20 -22 23 -25 26 27 28 -29 -30 32 -33 37 -39 -41 -43 -48 -49 0
x 2 3 -4 7 8 10 -11 16 17 -18 -19 20 24 25 -27 29 32 -34 36 -37 -38 39 -41 43 -45 47 48 -49 0
x -4 -5 -6 -9 10 11 -12 14 -15 -20 21 -24 26 -28 29 -31 32 33 -36 -37 -38 40 41 -42 46 0
